letting np_cars_plus be 168
letting np_classes be 79
letting np_options be 30
letting quantity_range_min be 2
letting quantity_range_delta be 72
letting maxcars_range_min be 8
letting maxcars_range_delta be 0
letting blksize_delta_range_min be 10
letting blksize_delta_range_delta be 5
letting usage_card_min be 801
letting usage_card_delta be 41